p edge 50 120
e 0 1
e 0 10
e 0 16
e 0 22
e 0 25
e 0 38
e 0 44
e 0 47
e 1 2
e 1 16
e 1 20
e 1 40
e 2 6
e 2 8
e 2 19
e 2 20
e 2 39
e 3 8
e 3 20
e 3 36
e 4 8
e 4 27
e 4 34
e 4 35
e 4 40
e 4 48
e 5 10
e 5 19
e 5 23
e 6 7
e 6 8
e 6 11
e 7 9
e 7 12
e 7 19
e 7 24
e 7 40
e 8 37
e 8 44
e 9 28
e 9 29
e 9 37
e 9 41
e 9 42
e 9 47
e 10 12
e 10 13
e 10 16
e 10 37
e 10 43
e 11 12
e 11 38
e 11 47
e 12 17
e 12 24
e 12 35
e 12 38
e 13 29
e 13 36
e 14 17
e 14 24
e 15 17
e 15 29
e 15 36
e 15 45
e 16 20
e 16 27
e 16 40
e 16 42
e 17 20
e 17 23
e 17 27
e 18 48
e 19 21
e 19 28
e 19 42
e 19 45
e 19 48
e 20 37
e 20 39
e 20 45
e 20 46
e 21 26
e 21 29
e 21 38
e 21 47
e 22 27
e 22 34
e 22 37
e 22 49
e 23 36
e 24 29
e 24 30
e 24 35
e 26 45
e 26 47
e 27 29
e 27 46
e 28 41
e 28 46
e 29 41
e 30 42
e 30 45
e 31 32
e 31 34
e 32 37
e 32 44
e 32 49
e 35 38
e 35 41
e 35 49
e 36 42
e 37 43
e 38 39
e 38 40
e 38 43
e 38 48
e 39 42
e 40 41
e 44 47
